# Generated by ConicBenchmarkUtilities.jl
VER
2

OBJSENSE
MIN

VAR
27 1
F 27

INT
8
14
15
16
17
18
19
20
21

CON
85 67
EXP 3
EXP 3
EXP 3
EXP 3
EXP 3
L= 1
EXP 3
EXP 3
L+ 1
EXP 3
L+ 1
L+ 1
L+ 1
L+ 1
L+ 1
L+ 1
L+ 1
L+ 1
L+ 1
L+ 1
L+ 1
EXP 3
L+ 1
L+ 1
L+ 1
L+ 1
L+ 1
L+ 1
L+ 1
L= 1
L+ 1
L= 1
L+ 1
L+ 1
L+ 1
L+ 1
L+ 1
L+ 1
L+ 1
L+ 1
L+ 1
L+ 1
L+ 1
L+ 1
L+ 1
L+ 1
L+ 1
L+ 1
L+ 1
L+ 1
L+ 1
L+ 1
L+ 1
L+ 1
L+ 1
L+ 1
L+ 1
L+ 1
L+ 1
L+ 1
L+ 1
L+ 1
L+ 1
L+ 1
L+ 1
L+ 1
L+ 1

OBJACOORD
1
22 1.0

ACOORD
149
2 0 1.0
15 0 -10.0
27 0 1.0
28 0 1.0
51 0 1.0
52 0 -1.0
0 1 1.0
15 1 1.0
36 1 -1.0
5 2 0.833333
15 2 -15.0
27 2 1.0
28 2 1.0
39 2 0.833333
53 2 1.0
54 2 -1.0
3 3 1.0
15 3 1.0
8 4 1.0
15 4 -65.0
6 5 1.0
15 5 15.0
23 5 1.0
27 5 -1.0
34 5 -1.0
35 5 1.0
46 5 -1.0
55 5 1.0
56 5 -1.0
6 6 1.0
15 6 80.0
23 6 1.0
27 6 -2.0
28 6 -2.0
29 6 2.0
31 6 1.0
34 6 0.8
35 6 -0.4
43 6 -2.0
46 6 -1.0
57 6 1.0
58 6 -1.0
11 7 1.0
15 7 -90.0
9 8 1.0
15 8 25.0
16 8 1.0
27 8 -0.8
28 8 -0.8
29 8 0.8
30 8 0.8
32 8 0.4
33 8 -0.16
42 8 -0.8
44 8 -1.0
59 8 1.0
60 8 -1.0
14 9 1.0
15 9 -80.0
12 10 1.0
15 10 35.0
19 10 1.0
27 10 -0.8
28 10 -0.8
29 10 0.8
30 10 0.8
32 10 0.4
33 10 -0.16
42 10 -0.8
45 10 -1.0
61 10 1.0
62 10 -1.0
15 11 -40.0
27 11 0.5
28 11 2.0
29 11 -2.0
31 11 -1.0
41 11 -1.0
43 11 2.0
63 11 1.0
64 11 -1.0
15 12 15.0
22 12 1.0
27 12 1.0
28 12 1.0
29 12 -1.0
30 12 -1.0
32 12 -1.5
33 12 1.2
65 12 1.0
66 12 -1.0
15 13 -35.0
27 13 2.0
28 13 2.0
29 13 -2.0
31 13 -1.0
43 13 2.0
67 13 1.0
68 13 -1.0
15 14 5.0
36 14 10.0
47 14 1.0
69 14 1.0
70 14 -1.0
15 15 8.0
40 15 10.0
47 15 1.0
71 15 1.0
72 15 -1.0
15 16 6.0
41 16 10.0
50 16 -1.0
73 16 1.0
74 16 -1.0
15 17 10.0
42 17 10.0
48 17 -1.0
49 17 -1.0
75 17 1.0
76 17 -1.0
15 18 6.0
43 18 10.0
48 18 -1.0
77 18 1.0
78 18 -1.0
15 19 7.0
44 19 10.0
49 19 1.0
79 19 1.0
80 19 -1.0
15 20 4.0
45 20 10.0
49 20 1.0
81 20 1.0
82 20 -1.0
15 21 5.0
46 21 10.0
50 21 1.0
83 21 1.0
84 21 -1.0
15 22 -1.0
18 23 1.0
22 23 1.5
21 24 1.0
22 24 1.0
25 25 1.0
26 25 1.0
37 26 1.0
40 26 -1.0

BCOORD
37
1 1.0
4 1.0
6 1.0
7 1.0
9 1.0
10 1.0
12 1.0
13 1.0
15 120.0
16 1.0
17 1.0
19 1.0
20 1.0
23 1.0
24 1.0
36 1.0
38 1.0
40 1.0
47 -1.0
48 1.0
52 2.0
54 2.0
56 1.0
58 2.0
60 2.0
62 2.0
64 2.0
66 1.0
68 3.0
70 1.0
72 1.0
74 1.0
76 1.0
78 1.0
80 1.0
82 1.0
84 1.0
